61 
2 
61 -60 
-0.000000000000000000e+00  -0.000000000000000000e+00  -0.000000000000000000e+00  -0.000000000000000000e+00  -0.000000000000000000e+00  -0.000000000000000000e+00  -0.000000000000000000e+00  -0.000000000000000000e+00  -0.000000000000000000e+00  -0.000000000000000000e+00  -0.000000000000000000e+00  -0.000000000000000000e+00  -0.000000000000000000e+00  -0.000000000000000000e+00  -0.000000000000000000e+00  -0.000000000000000000e+00  -0.000000000000000000e+00  -0.000000000000000000e+00  -0.000000000000000000e+00  -0.000000000000000000e+00  -0.000000000000000000e+00  -0.000000000000000000e+00  -0.000000000000000000e+00  -0.000000000000000000e+00  -0.000000000000000000e+00  -0.000000000000000000e+00  -0.000000000000000000e+00  -0.000000000000000000e+00  -0.000000000000000000e+00  -0.000000000000000000e+00  -0.000000000000000000e+00  -0.000000000000000000e+00  -0.000000000000000000e+00  -0.000000000000000000e+00  -0.000000000000000000e+00  -0.000000000000000000e+00  -0.000000000000000000e+00  -0.000000000000000000e+00  -0.000000000000000000e+00  -0.000000000000000000e+00  -0.000000000000000000e+00  -0.000000000000000000e+00  -0.000000000000000000e+00  -0.000000000000000000e+00  -0.000000000000000000e+00  -0.000000000000000000e+00  -0.000000000000000000e+00  -0.000000000000000000e+00  -0.000000000000000000e+00  -0.000000000000000000e+00  -0.000000000000000000e+00  -0.000000000000000000e+00  -0.000000000000000000e+00  -0.000000000000000000e+00  -0.000000000000000000e+00  -0.000000000000000000e+00  -0.000000000000000000e+00  -0.000000000000000000e+00  -0.000000000000000000e+00  -0.000000000000000000e+00  1.000000000000000000e+00  
0 1 1 3 -7.500000000000000000e+00
0 1 1 5 9.500000000000000000e+00
0 1 1 7 -8.500000000000000000e+00
0 1 2 7 5.500000000000000000e+00
0 1 4 8 -2.100000000000000000e+01
0 1 6 8 -5.000000000000000000e-01
0 1 4 9 2.250000000000000000e+01
0 1 9 9 7.000000000000000000e+00
0 1 4 10 -1.950000000000000000e+01
0 1 5 10 -2.300000000000000000e+01
0 1 8 10 -8.500000000000000000e+00
0 1 10 11 6.500000000000000000e+00
0 1 6 12 -9.500000000000000000e+00
0 1 12 12 1.900000000000000000e+01
0 1 3 13 -1.050000000000000000e+01
0 1 5 13 -1.700000000000000000e+01
0 1 10 13 -3.000000000000000000e+00
0 1 5 14 2.250000000000000000e+01
0 1 13 14 1.850000000000000000e+01
0 1 3 15 2.050000000000000000e+01
0 1 6 15 -1.850000000000000000e+01
0 1 13 15 2.400000000000000000e+01
0 1 4 16 -1.850000000000000000e+01
0 1 6 16 -1.550000000000000000e+01
0 1 12 16 -1.850000000000000000e+01
0 1 1 17 -5.500000000000000000e+00
0 1 9 17 -9.000000000000000000e+00
0 1 11 17 -2.250000000000000000e+01
0 1 17 17 1.200000000000000000e+01
0 1 2 18 -1.700000000000000000e+01
0 1 7 18 1.750000000000000000e+01
0 1 9 18 1.000000000000000000e+01
0 1 15 18 -1.000000000000000000e+00
0 1 16 18 -9.000000000000000000e+00
0 1 4 19 -4.000000000000000000e+00
0 1 12 19 -1.100000000000000000e+01
0 1 15 19 5.500000000000000000e+00
0 1 17 19 -1.550000000000000000e+01
0 1 19 19 -1.200000000000000000e+01
0 1 11 20 -6.000000000000000000e+00
0 1 15 20 -5.000000000000000000e+00
0 1 3 21 -2.050000000000000000e+01
0 1 6 21 -2.050000000000000000e+01
0 1 8 21 -1.000000000000000000e+01
0 1 12 21 4.000000000000000000e+00
0 1 13 21 -8.000000000000000000e+00
0 1 2 22 -3.000000000000000000e+00
0 1 4 22 -1.800000000000000000e+01
0 1 12 22 -5.000000000000000000e-01
0 1 15 22 -1.200000000000000000e+01
0 1 16 22 4.000000000000000000e+00
0 1 18 22 -1.800000000000000000e+01
0 1 21 22 -1.650000000000000000e+01
0 1 22 22 3.500000000000000000e+00
0 1 4 23 -1.100000000000000000e+01
0 1 5 23 2.150000000000000000e+01
0 1 15 23 -5.000000000000000000e+00
0 1 18 23 -1.600000000000000000e+01
0 1 20 23 -2.350000000000000000e+01
0 1 6 24 -1.300000000000000000e+01
0 1 14 24 1.000000000000000000e+00
0 1 17 24 1.250000000000000000e+01
0 1 18 24 -1.950000000000000000e+01
0 1 19 24 -1.750000000000000000e+01
0 1 20 24 -2.200000000000000000e+01
0 1 22 24 -6.500000000000000000e+00
0 1 15 25 1.600000000000000000e+01
0 1 16 25 1.300000000000000000e+01
0 1 19 25 1.750000000000000000e+01
0 1 20 25 -1.500000000000000000e+01
0 1 2 26 2.150000000000000000e+01
0 1 6 26 9.000000000000000000e+00
0 1 7 26 1.850000000000000000e+01
0 1 17 26 -1.800000000000000000e+01
0 1 5 27 -1.550000000000000000e+01
0 1 9 27 -2.350000000000000000e+01
0 1 10 27 1.400000000000000000e+01
0 1 15 27 1.750000000000000000e+01
0 1 17 27 -2.350000000000000000e+01
0 1 27 27 -1.150000000000000000e+01
0 1 4 28 -1.250000000000000000e+01
0 1 10 28 9.000000000000000000e+00
0 1 11 28 -1.550000000000000000e+01
0 1 26 28 -2.000000000000000000e+01
0 1 17 29 2.350000000000000000e+01
0 1 19 29 -1.050000000000000000e+01
0 1 21 29 1.900000000000000000e+01
0 1 23 29 -2.350000000000000000e+01
0 1 29 29 9.500000000000000000e+00
0 1 3 30 -1.300000000000000000e+01
0 1 6 30 -2.450000000000000000e+01
0 1 9 30 -1.750000000000000000e+01
0 1 14 30 -1.150000000000000000e+01
0 1 15 30 4.000000000000000000e+00
0 1 7 31 4.500000000000000000e+00
0 1 11 31 2.500000000000000000e+00
0 1 20 31 5.500000000000000000e+00
0 1 22 31 2.200000000000000000e+01
0 1 3 32 -1.000000000000000000e+01
0 1 4 32 -1.250000000000000000e+01
0 1 7 32 2.350000000000000000e+01
0 1 13 32 6.500000000000000000e+00
0 1 15 32 1.550000000000000000e+01
0 1 4 33 2.200000000000000000e+01
0 1 6 33 -1.300000000000000000e+01
0 1 7 33 -2.350000000000000000e+01
0 1 15 33 1.950000000000000000e+01
0 1 28 33 2.350000000000000000e+01
0 1 31 33 -6.000000000000000000e+00
0 1 2 34 -2.150000000000000000e+01
0 1 8 34 7.500000000000000000e+00
0 1 14 34 -2.100000000000000000e+01
0 1 24 34 -1.700000000000000000e+01
0 1 30 34 1.100000000000000000e+01
0 1 33 34 -1.150000000000000000e+01
0 1 9 35 -1.600000000000000000e+01
0 1 10 35 4.500000000000000000e+00
0 1 13 35 -8.000000000000000000e+00
0 1 20 35 1.700000000000000000e+01
0 1 25 35 -5.000000000000000000e+00
0 1 31 35 -1.950000000000000000e+01
0 1 3 36 -4.000000000000000000e+00
0 1 5 36 4.000000000000000000e+00
0 1 7 36 -1.700000000000000000e+01
0 1 9 36 -1.300000000000000000e+01
0 1 20 36 6.500000000000000000e+00
0 1 29 36 -1.900000000000000000e+01
0 1 30 36 4.500000000000000000e+00
0 1 33 36 -7.500000000000000000e+00
0 1 1 37 -3.000000000000000000e+00
0 1 6 37 -2.300000000000000000e+01
0 1 8 37 -2.500000000000000000e+00
0 1 20 37 1.950000000000000000e+01
0 1 25 37 1.150000000000000000e+01
0 1 4 38 -2.250000000000000000e+01
0 1 8 38 2.500000000000000000e+00
0 1 14 38 6.000000000000000000e+00
0 1 15 38 2.250000000000000000e+01
0 1 29 38 1.000000000000000000e+00
0 1 34 38 -1.300000000000000000e+01
0 1 14 39 -8.000000000000000000e+00
0 1 21 39 -7.500000000000000000e+00
0 1 29 39 -1.350000000000000000e+01
0 1 4 40 -1.700000000000000000e+01
0 1 14 40 -4.000000000000000000e+00
0 1 21 40 -1.650000000000000000e+01
0 1 24 40 -8.500000000000000000e+00
0 1 25 40 -1.850000000000000000e+01
0 1 26 40 -5.500000000000000000e+00
0 1 29 40 -1.400000000000000000e+01
0 1 36 40 -2.400000000000000000e+01
0 1 37 40 -1.000000000000000000e+00
0 1 38 40 1.300000000000000000e+01
0 1 7 41 -2.300000000000000000e+01
0 1 11 41 -9.000000000000000000e+00
0 1 14 41 -5.000000000000000000e+00
0 1 18 41 1.700000000000000000e+01
0 1 20 41 2.500000000000000000e+00
0 1 24 41 6.000000000000000000e+00
0 1 26 41 3.000000000000000000e+00
0 1 31 41 -1.650000000000000000e+01
0 1 5 42 1.700000000000000000e+01
0 1 12 42 -7.000000000000000000e+00
0 1 13 42 1.000000000000000000e+00
0 1 22 42 -6.000000000000000000e+00
0 1 23 42 -2.350000000000000000e+01
0 1 24 42 2.250000000000000000e+01
0 1 26 42 2.200000000000000000e+01
0 1 35 42 2.050000000000000000e+01
0 1 1 43 1.500000000000000000e+00
0 1 3 43 2.200000000000000000e+01
0 1 4 43 -1.750000000000000000e+01
0 1 9 43 -2.400000000000000000e+01
0 1 12 43 4.500000000000000000e+00
0 1 19 43 1.000000000000000000e+01
0 1 23 43 9.000000000000000000e+00
0 1 24 43 7.000000000000000000e+00
0 1 28 43 -5.000000000000000000e+00
0 1 33 43 -2.200000000000000000e+01
0 1 40 43 1.400000000000000000e+01
0 1 17 44 1.300000000000000000e+01
0 1 23 44 1.500000000000000000e+01
0 1 28 44 -2.150000000000000000e+01
0 1 9 45 -1.700000000000000000e+01
0 1 17 45 3.000000000000000000e+00
0 1 24 45 -2.200000000000000000e+01
0 1 31 45 -5.000000000000000000e+00
0 1 36 45 2.500000000000000000e+00
0 1 39 45 -1.900000000000000000e+01
0 1 42 45 1.750000000000000000e+01
0 1 1 46 -3.500000000000000000e+00
0 1 4 46 -1.450000000000000000e+01
0 1 10 46 -1.050000000000000000e+01
0 1 21 46 -2.100000000000000000e+01
0 1 24 46 -1.650000000000000000e+01
0 1 38 46 -1.500000000000000000e+01
0 1 39 46 -2.000000000000000000e+01
0 1 40 46 -6.000000000000000000e+00
0 1 1 47 -1.650000000000000000e+01
0 1 4 47 -1.450000000000000000e+01
0 1 7 47 2.000000000000000000e+01
0 1 12 47 -8.500000000000000000e+00
0 1 16 47 -2.000000000000000000e+01
0 1 17 47 -8.000000000000000000e+00
0 1 30 47 -1.100000000000000000e+01
0 1 31 47 -3.000000000000000000e+00
0 1 35 47 -8.500000000000000000e+00
0 1 8 48 2.300000000000000000e+01
0 1 9 48 -6.500000000000000000e+00
0 1 15 48 1.050000000000000000e+01
0 1 21 48 1.900000000000000000e+01
0 1 23 48 -5.000000000000000000e-01
0 1 28 48 -1.500000000000000000e+01
0 1 38 48 -2.000000000000000000e+01
0 1 45 48 -8.000000000000000000e+00
0 1 47 48 -2.350000000000000000e+01
0 1 1 49 4.500000000000000000e+00
0 1 4 49 -2.000000000000000000e+01
0 1 18 49 1.800000000000000000e+01
0 1 23 49 -4.000000000000000000e+00
0 1 25 49 -1.950000000000000000e+01
0 1 27 49 1.850000000000000000e+01
0 1 30 49 -1.500000000000000000e+01
0 1 37 49 7.500000000000000000e+00
0 1 41 49 4.500000000000000000e+00
0 1 43 49 -2.250000000000000000e+01
0 1 46 49 -8.500000000000000000e+00
0 1 17 50 -1.550000000000000000e+01
0 1 19 50 -2.450000000000000000e+01
0 1 21 50 7.000000000000000000e+00
0 1 22 50 -1.500000000000000000e+00
0 1 23 50 -2.350000000000000000e+01
0 1 28 50 3.000000000000000000e+00
0 1 35 50 -2.500000000000000000e+00
0 1 39 50 7.500000000000000000e+00
0 1 42 50 -9.000000000000000000e+00
0 1 6 51 -1.450000000000000000e+01
0 1 10 51 -4.500000000000000000e+00
0 1 13 51 8.000000000000000000e+00
0 1 23 51 1.350000000000000000e+01
0 1 28 51 -4.500000000000000000e+00
0 1 30 51 2.200000000000000000e+01
0 1 33 51 1.250000000000000000e+01
0 1 34 51 7.000000000000000000e+00
0 1 36 51 4.500000000000000000e+00
0 1 37 51 2.200000000000000000e+01
0 1 41 51 -1.700000000000000000e+01
0 1 51 51 5.000000000000000000e+00
0 1 2 52 -1.300000000000000000e+01
0 1 4 52 -1.650000000000000000e+01
0 1 15 52 2.100000000000000000e+01
0 1 16 52 -2.100000000000000000e+01
0 1 20 52 -5.000000000000000000e+00
0 1 21 52 5.000000000000000000e+00
0 1 25 52 -2.150000000000000000e+01
0 1 29 52 5.500000000000000000e+00
0 1 32 52 5.000000000000000000e+00
0 1 38 52 2.450000000000000000e+01
0 1 39 52 3.500000000000000000e+00
0 1 43 52 -4.000000000000000000e+00
0 1 2 53 -2.350000000000000000e+01
0 1 11 53 -2.250000000000000000e+01
0 1 14 53 9.500000000000000000e+00
0 1 29 53 -1.500000000000000000e+01
0 1 37 53 -1.550000000000000000e+01
0 1 41 53 -1.000000000000000000e+01
0 1 47 53 2.150000000000000000e+01
0 1 4 54 -6.500000000000000000e+00
0 1 14 54 8.000000000000000000e+00
0 1 15 54 -1.250000000000000000e+01
0 1 17 54 -1.300000000000000000e+01
0 1 25 54 -1.650000000000000000e+01
0 1 29 54 1.900000000000000000e+01
0 1 32 54 1.850000000000000000e+01
0 1 34 54 1.750000000000000000e+01
0 1 46 54 -2.300000000000000000e+01
0 1 52 54 2.300000000000000000e+01
0 1 3 55 -1.600000000000000000e+01
0 1 19 55 2.250000000000000000e+01
0 1 21 55 1.850000000000000000e+01
0 1 27 55 -8.500000000000000000e+00
0 1 30 55 -1.050000000000000000e+01
0 1 31 55 -1.300000000000000000e+01
0 1 32 55 -6.000000000000000000e+00
0 1 34 55 -8.000000000000000000e+00
0 1 40 55 1.450000000000000000e+01
0 1 44 55 -2.450000000000000000e+01
0 1 2 56 -7.500000000000000000e+00
0 1 8 56 -2.250000000000000000e+01
0 1 15 56 -2.400000000000000000e+01
0 1 17 56 7.500000000000000000e+00
0 1 20 56 -1.050000000000000000e+01
0 1 25 56 9.000000000000000000e+00
0 1 33 56 1.150000000000000000e+01
0 1 34 56 9.000000000000000000e+00
0 1 41 56 -1.600000000000000000e+01
0 1 44 56 -1.500000000000000000e+00
0 1 45 56 -8.500000000000000000e+00
0 1 46 56 2.500000000000000000e+00
0 1 56 56 1.250000000000000000e+01
0 1 3 57 2.400000000000000000e+01
0 1 13 57 -3.000000000000000000e+00
0 1 15 57 -4.000000000000000000e+00
0 1 17 57 -5.000000000000000000e+00
0 1 30 57 3.000000000000000000e+00
0 1 38 57 -3.500000000000000000e+00
0 1 42 57 -2.350000000000000000e+01
0 1 44 57 9.000000000000000000e+00
0 1 45 57 -1.800000000000000000e+01
0 1 49 57 8.500000000000000000e+00
0 1 55 57 4.000000000000000000e+00
0 1 57 57 -2.350000000000000000e+01
0 1 1 58 8.000000000000000000e+00
0 1 10 58 -1.950000000000000000e+01
0 1 12 58 -1.900000000000000000e+01
0 1 16 58 -8.500000000000000000e+00
0 1 18 58 3.000000000000000000e+00
0 1 19 58 -2.300000000000000000e+01
0 1 20 58 1.250000000000000000e+01
0 1 36 58 -2.400000000000000000e+01
0 1 41 58 2.050000000000000000e+01
0 1 44 58 1.550000000000000000e+01
0 1 48 58 2.500000000000000000e+00
0 1 54 58 -1.500000000000000000e+00
0 1 55 58 9.500000000000000000e+00
0 1 57 58 -2.450000000000000000e+01
0 1 4 59 1.500000000000000000e+00
0 1 5 59 -3.500000000000000000e+00
0 1 20 59 -2.150000000000000000e+01
0 1 21 59 1.800000000000000000e+01
0 1 23 59 1.300000000000000000e+01
0 1 34 59 2.200000000000000000e+01
0 1 40 59 1.950000000000000000e+01
0 1 46 59 -2.350000000000000000e+01
0 1 48 59 1.150000000000000000e+01
0 1 49 59 1.000000000000000000e+01
0 1 50 59 1.850000000000000000e+01
0 1 52 59 -1.500000000000000000e+00
0 1 54 59 1.500000000000000000e+00
0 1 58 59 -6.000000000000000000e+00
0 1 1 60 2.150000000000000000e+01
0 1 5 60 1.900000000000000000e+01
0 1 10 60 -4.000000000000000000e+00
0 1 12 60 4.000000000000000000e+00
0 1 18 60 -5.000000000000000000e+00
0 1 23 60 -1.050000000000000000e+01
0 1 29 60 9.500000000000000000e+00
0 1 38 60 1.700000000000000000e+01
0 1 46 60 2.400000000000000000e+01
0 1 49 60 -1.550000000000000000e+01
0 1 54 60 -1.300000000000000000e+01
0 1 2 61 -8.500000000000000000e+00
0 1 3 61 -2.250000000000000000e+01
0 1 8 61 -1.850000000000000000e+01
0 1 12 61 -2.150000000000000000e+01
0 1 23 61 -2.450000000000000000e+01
0 1 25 61 2.000000000000000000e+01
0 1 28 61 -1.700000000000000000e+01
0 1 29 61 -3.000000000000000000e+00
0 1 35 61 -2.200000000000000000e+01
0 1 41 61 -1.700000000000000000e+01
0 1 46 61 -1.950000000000000000e+01
0 1 47 61 -3.000000000000000000e+00
0 1 52 61 1.350000000000000000e+01
1 1 1 2 5.000000000000000000e-01
1 1 2 2 -1.000000000000000000e+00
1 2 1 1 -1.000000000000000000e+00
2 1 1 3 5.000000000000000000e-01
2 1 3 3 -1.000000000000000000e+00
2 2 2 2 -1.000000000000000000e+00
3 1 1 4 5.000000000000000000e-01
3 1 4 4 -1.000000000000000000e+00
3 2 3 3 -1.000000000000000000e+00
4 1 1 5 5.000000000000000000e-01
4 1 5 5 -1.000000000000000000e+00
4 2 4 4 -1.000000000000000000e+00
5 1 1 6 5.000000000000000000e-01
5 1 6 6 -1.000000000000000000e+00
5 2 5 5 -1.000000000000000000e+00
6 1 1 7 5.000000000000000000e-01
6 1 7 7 -1.000000000000000000e+00
6 2 6 6 -1.000000000000000000e+00
7 1 1 8 5.000000000000000000e-01
7 1 8 8 -1.000000000000000000e+00
7 2 7 7 -1.000000000000000000e+00
8 1 1 9 5.000000000000000000e-01
8 1 9 9 -1.000000000000000000e+00
8 2 8 8 -1.000000000000000000e+00
9 1 1 10 5.000000000000000000e-01
9 1 10 10 -1.000000000000000000e+00
9 2 9 9 -1.000000000000000000e+00
10 1 1 11 5.000000000000000000e-01
10 1 11 11 -1.000000000000000000e+00
10 2 10 10 -1.000000000000000000e+00
11 1 1 12 5.000000000000000000e-01
11 1 12 12 -1.000000000000000000e+00
11 2 11 11 -1.000000000000000000e+00
12 1 1 13 5.000000000000000000e-01
12 1 13 13 -1.000000000000000000e+00
12 2 12 12 -1.000000000000000000e+00
13 1 1 14 5.000000000000000000e-01
13 1 14 14 -1.000000000000000000e+00
13 2 13 13 -1.000000000000000000e+00
14 1 1 15 5.000000000000000000e-01
14 1 15 15 -1.000000000000000000e+00
14 2 14 14 -1.000000000000000000e+00
15 1 1 16 5.000000000000000000e-01
15 1 16 16 -1.000000000000000000e+00
15 2 15 15 -1.000000000000000000e+00
16 1 1 17 5.000000000000000000e-01
16 1 17 17 -1.000000000000000000e+00
16 2 16 16 -1.000000000000000000e+00
17 1 1 18 5.000000000000000000e-01
17 1 18 18 -1.000000000000000000e+00
17 2 17 17 -1.000000000000000000e+00
18 1 1 19 5.000000000000000000e-01
18 1 19 19 -1.000000000000000000e+00
18 2 18 18 -1.000000000000000000e+00
19 1 1 20 5.000000000000000000e-01
19 1 20 20 -1.000000000000000000e+00
19 2 19 19 -1.000000000000000000e+00
20 1 1 21 5.000000000000000000e-01
20 1 21 21 -1.000000000000000000e+00
20 2 20 20 -1.000000000000000000e+00
21 1 1 22 5.000000000000000000e-01
21 1 22 22 -1.000000000000000000e+00
21 2 21 21 -1.000000000000000000e+00
22 1 1 23 5.000000000000000000e-01
22 1 23 23 -1.000000000000000000e+00
22 2 22 22 -1.000000000000000000e+00
23 1 1 24 5.000000000000000000e-01
23 1 24 24 -1.000000000000000000e+00
23 2 23 23 -1.000000000000000000e+00
24 1 1 25 5.000000000000000000e-01
24 1 25 25 -1.000000000000000000e+00
24 2 24 24 -1.000000000000000000e+00
25 1 1 26 5.000000000000000000e-01
25 1 26 26 -1.000000000000000000e+00
25 2 25 25 -1.000000000000000000e+00
26 1 1 27 5.000000000000000000e-01
26 1 27 27 -1.000000000000000000e+00
26 2 26 26 -1.000000000000000000e+00
27 1 1 28 5.000000000000000000e-01
27 1 28 28 -1.000000000000000000e+00
27 2 27 27 -1.000000000000000000e+00
28 1 1 29 5.000000000000000000e-01
28 1 29 29 -1.000000000000000000e+00
28 2 28 28 -1.000000000000000000e+00
29 1 1 30 5.000000000000000000e-01
29 1 30 30 -1.000000000000000000e+00
29 2 29 29 -1.000000000000000000e+00
30 1 1 31 5.000000000000000000e-01
30 1 31 31 -1.000000000000000000e+00
30 2 30 30 -1.000000000000000000e+00
31 1 1 32 5.000000000000000000e-01
31 1 32 32 -1.000000000000000000e+00
31 2 31 31 -1.000000000000000000e+00
32 1 1 33 5.000000000000000000e-01
32 1 33 33 -1.000000000000000000e+00
32 2 32 32 -1.000000000000000000e+00
33 1 1 34 5.000000000000000000e-01
33 1 34 34 -1.000000000000000000e+00
33 2 33 33 -1.000000000000000000e+00
34 1 1 35 5.000000000000000000e-01
34 1 35 35 -1.000000000000000000e+00
34 2 34 34 -1.000000000000000000e+00
35 1 1 36 5.000000000000000000e-01
35 1 36 36 -1.000000000000000000e+00
35 2 35 35 -1.000000000000000000e+00
36 1 1 37 5.000000000000000000e-01
36 1 37 37 -1.000000000000000000e+00
36 2 36 36 -1.000000000000000000e+00
37 1 1 38 5.000000000000000000e-01
37 1 38 38 -1.000000000000000000e+00
37 2 37 37 -1.000000000000000000e+00
38 1 1 39 5.000000000000000000e-01
38 1 39 39 -1.000000000000000000e+00
38 2 38 38 -1.000000000000000000e+00
39 1 1 40 5.000000000000000000e-01
39 1 40 40 -1.000000000000000000e+00
39 2 39 39 -1.000000000000000000e+00
40 1 1 41 5.000000000000000000e-01
40 1 41 41 -1.000000000000000000e+00
40 2 40 40 -1.000000000000000000e+00
41 1 1 42 5.000000000000000000e-01
41 1 42 42 -1.000000000000000000e+00
41 2 41 41 -1.000000000000000000e+00
42 1 1 43 5.000000000000000000e-01
42 1 43 43 -1.000000000000000000e+00
42 2 42 42 -1.000000000000000000e+00
43 1 1 44 5.000000000000000000e-01
43 1 44 44 -1.000000000000000000e+00
43 2 43 43 -1.000000000000000000e+00
44 1 1 45 5.000000000000000000e-01
44 1 45 45 -1.000000000000000000e+00
44 2 44 44 -1.000000000000000000e+00
45 1 1 46 5.000000000000000000e-01
45 1 46 46 -1.000000000000000000e+00
45 2 45 45 -1.000000000000000000e+00
46 1 1 47 5.000000000000000000e-01
46 1 47 47 -1.000000000000000000e+00
46 2 46 46 -1.000000000000000000e+00
47 1 1 48 5.000000000000000000e-01
47 1 48 48 -1.000000000000000000e+00
47 2 47 47 -1.000000000000000000e+00
48 1 1 49 5.000000000000000000e-01
48 1 49 49 -1.000000000000000000e+00
48 2 48 48 -1.000000000000000000e+00
49 1 1 50 5.000000000000000000e-01
49 1 50 50 -1.000000000000000000e+00
49 2 49 49 -1.000000000000000000e+00
50 1 1 51 5.000000000000000000e-01
50 1 51 51 -1.000000000000000000e+00
50 2 50 50 -1.000000000000000000e+00
51 1 1 52 5.000000000000000000e-01
51 1 52 52 -1.000000000000000000e+00
51 2 51 51 -1.000000000000000000e+00
52 1 1 53 5.000000000000000000e-01
52 1 53 53 -1.000000000000000000e+00
52 2 52 52 -1.000000000000000000e+00
53 1 1 54 5.000000000000000000e-01
53 1 54 54 -1.000000000000000000e+00
53 2 53 53 -1.000000000000000000e+00
54 1 1 55 5.000000000000000000e-01
54 1 55 55 -1.000000000000000000e+00
54 2 54 54 -1.000000000000000000e+00
55 1 1 56 5.000000000000000000e-01
55 1 56 56 -1.000000000000000000e+00
55 2 55 55 -1.000000000000000000e+00
56 1 1 57 5.000000000000000000e-01
56 1 57 57 -1.000000000000000000e+00
56 2 56 56 -1.000000000000000000e+00
57 1 1 58 5.000000000000000000e-01
57 1 58 58 -1.000000000000000000e+00
57 2 57 57 -1.000000000000000000e+00
58 1 1 59 5.000000000000000000e-01
58 1 59 59 -1.000000000000000000e+00
58 2 58 58 -1.000000000000000000e+00
59 1 1 60 5.000000000000000000e-01
59 1 60 60 -1.000000000000000000e+00
59 2 59 59 -1.000000000000000000e+00
60 1 1 61 5.000000000000000000e-01
60 1 61 61 -1.000000000000000000e+00
60 2 60 60 -1.000000000000000000e+00
61 1 1 1 1.000000000000000000e+00
